c This is a random SAT instance with 10 variables and 20 clauses
p cnf 10 20
-3 -9 -4 -10 2 6 5 8 1 -5 0
3 -4 2 4 8 0
-1 0
-6 8 2 -4 -5 9 5 -9 -7 0
7 -9 -5 8 1 -6 0
-10 10 -5 7 5 0
-10 8 4 -8 6 3 -5 -2 0
1 -7 -2 -10 -6 -9 7 5 10 0
10 -8 -4 -1 7 8 -3 -7 0
9 1 5 0
-4 -7 0
-7 7 4 -10 -3 9 0
1 0
-9 0
3 -1 -8 5 1 -4 10 -6 -2 0
-9 -3 3 0
9 -5 7 8 -2 0
4 -7 -9 9 -8 2 10 8 0
7 10 4 9 3 -10 -4 -9 -5 0
8 -8 0